n_res = 5;
n_events = 12;
n_prec = 19;
source = 1;
sink = 12;
min_lvl = [-5, 0, -2, -2, 0];
max_lvl = [-1, 6, 2, 0, 2];
rr = [| 0, -1, 0, 0, 0, 0, 0, -1, -2, -1, 1, 0
      | 0, 0, -1, 0, 0, -1, 2, 1, 1, 2, 2, 0
      | 0, -1, 1, 0, 2, 0, -1, 0, 1, -2, -2, 0
      | 0, 0, 0, 1, -1, -2, 0, -2, 2, 0, 0, 0
      | 0, -1, 2, 2, -1, -2, -1, 0, 0, 0, 1, 0 |];
prec = [| 1, 0, 4
        | 1, 0, 3
        | 1, 0, 2
        | 1, 0, 5
        | 2, 9, 12
        | 2, 5, 11
        | 3, 4, 8
        | 4, 13, 11
        | 5, 30, 9
        | 6, 0, 11
        | 6, 1, 7
        | 6, -5, 9
        | 7, 0, 11
        | 8, 3, 6
        | 8, -5, 3
        | 9, -2, 10
        | 9, 5, 6
        | 10, 17, 7
        | 11, 3, 12 |];
